% Data file generated from RandomInstances/20_0.80_3.col DIMACS file
size = 20;

chi = 9;

adjacency = [|0,1,0,1,0,0,1,1,1,1,1,0,1,1,1,1,1,0,1,1,
|1,0,1,1,0,1,1,0,1,1,1,1,1,1,0,1,0,1,1,0,
|0,1,0,1,0,1,1,1,1,1,1,1,0,1,1,1,1,1,1,1,
|1,1,1,0,1,1,1,0,1,0,1,1,1,1,1,1,1,0,1,1,
|0,0,0,1,0,1,1,1,0,1,1,1,1,1,1,0,0,1,1,0,
|0,1,1,1,1,0,1,1,1,0,1,1,1,1,1,1,1,0,1,1,
|1,1,1,1,1,1,0,1,1,0,0,1,1,0,1,1,0,1,1,1,
|1,0,1,0,1,1,1,0,1,1,0,1,1,1,0,1,1,1,0,1,
|1,1,1,1,0,1,1,1,0,0,1,1,1,1,1,1,0,1,1,1,
|1,1,1,0,1,0,0,1,0,0,1,1,0,1,1,1,1,1,1,0,
|1,1,1,1,1,1,0,0,1,1,0,1,0,1,1,0,1,1,1,1,
|0,1,1,1,1,1,1,1,1,1,1,0,1,0,1,1,1,1,1,1,
|1,1,0,1,1,1,1,1,1,0,0,1,0,1,1,1,1,0,1,1,
|1,1,1,1,1,1,0,1,1,1,1,0,1,0,0,1,1,1,1,1,
|1,0,1,1,1,1,1,0,1,1,1,1,1,0,0,1,1,0,1,0,
|1,1,1,1,0,1,1,1,1,1,0,1,1,1,1,0,0,1,1,1,
|1,0,1,1,0,1,0,1,0,1,1,1,1,1,1,0,0,1,1,1,
|0,1,1,0,1,0,1,1,1,1,1,1,0,1,0,1,1,0,1,1,
|1,1,1,1,1,1,1,0,1,1,1,1,1,1,1,1,1,1,0,0,
|1,0,1,1,0,1,1,1,1,0,1,1,1,1,0,1,1,1,0,0,
|];